
%FILE DATA:	Soccer Computational Problem for MiniZinc Models	%
%AUTHOR:	Jack Wall	%
%CONTACT:  	116397063@umail.ucc.ie			%
%LAST UPDATE:	03/16/2020, 15:01:12						%
%DESCRIPTION: 	195 games played with 15 games left				%


n=15; %number of teams

%Games to play
games=[|5,13|15,1|8,5|15,7|15,8|9,10|13,14|7,9|13,12|5,8|1,5|13,15|2,11|7,4|15,10|];

%Initial points
iPoints=[19,37,48,36,37,49,32,28,37,25,32,49,24,35,31];

%POSITION CONSTRAINTS
% [|teamID, operator, position|...]
% operators index:
%  1 for =  operator
%  2 for >  operator
%  3 for >= operator
%  4 for <  operator
%  5 for <= operator
positionConstraints=[|12,4,2|6,2,1|3,3,3|];